Set parameter TimeLimit to value 7200
Set parameter NoRelHeurTime to value 2400
Set parameter MIPFocus to value 3
Gurobi Optimizer version 9.5.2 build v9.5.2rc0 (win64)
Thread count: 4 physical cores, 8 logical processors, using up to 8 threads
Optimize a model with 296246 rows, 119700 columns and 25521720 nonzeros
Model fingerprint: 0x1d099693
Variable types: 59220 continuous, 60480 integer (59640 binary)
Coefficient statistics:
  Matrix range     [1e+00, 1e+03]
  Objective range  [1e-01, 9e+00]
  Bounds range     [1e+00, 1e+00]
  RHS range        [1e+00, 1e+03]

Processing user MIP start: 0 nodes explored in subMIP, total elapsed time 7s
User MIP start produced solution with objective 167.183 (8.51s)
Loaded user MIP start with objective 167.183
Processed MIP start in 8.50 seconds (1.76 work units)

Presolve removed 178080 rows and 59220 columns (presolve time = 6s) ...
Presolve removed 236040 rows and 59220 columns
Presolve time: 8.68s
Presolved: 60206 rows, 60480 columns, 354900 nonzeros
Crushed 3 out of 177660 user cuts to presolved model
Variable types: 0 continuous, 60480 integer (59640 binary)
Starting NoRel heuristic
Found heuristic solution: objective 165.7287675
Found heuristic solution: objective 165.0949325
Found heuristic solution: objective 164.4396780
Found heuristic solution: objective 162.3077421
Found heuristic solution: objective 161.9009497
Found heuristic solution: objective 161.8875112
Found heuristic solution: objective 161.6930331
Found heuristic solution: objective 161.5475525
Found heuristic solution: objective 160.0453026
Found heuristic solution: objective 159.0447204
Found heuristic solution: objective 158.2194549
Found heuristic solution: objective 158.1386882
Found heuristic solution: objective 158.0276825
Found heuristic solution: objective 157.9812919
Found heuristic solution: objective 156.3927198
Found heuristic solution: objective 156.2131364
Found heuristic solution: objective 156.2089352
Found heuristic solution: objective 156.1651383
Found heuristic solution: objective 156.0831446
Found heuristic solution: objective 156.0068348
Found heuristic solution: objective 155.3334792
Found heuristic solution: objective 155.2724665
Found heuristic solution: objective 152.9113373
Elapsed time for NoRel heuristic: 6s (best bound 78.9141)
Found heuristic solution: objective 152.2650263
Found heuristic solution: objective 152.2437677
Found heuristic solution: objective 151.4576187
Found heuristic solution: objective 150.9922635
Found heuristic solution: objective 150.3772110
Found heuristic solution: objective 150.1813557
Found heuristic solution: objective 149.8967031
Found heuristic solution: objective 149.7008479
Found heuristic solution: objective 147.6332130
Found heuristic solution: objective 147.2547866
Elapsed time for NoRel heuristic: 15s (best bound 78.9141)
Found heuristic solution: objective 141.6480006
Found heuristic solution: objective 139.9695665
Found heuristic solution: objective 138.8325952
Found heuristic solution: objective 137.9101405
Found heuristic solution: objective 137.2657982
Found heuristic solution: objective 137.2208212
Found heuristic solution: objective 136.7670205
Found heuristic solution: objective 136.1065712
Elapsed time for NoRel heuristic: 20s (best bound 78.9151)
Found heuristic solution: objective 135.9350247
Elapsed time for NoRel heuristic: 27s (best bound 78.9151)
Found heuristic solution: objective 135.2828248
Found heuristic solution: objective 134.5610776
Found heuristic solution: objective 134.1208163
Elapsed time for NoRel heuristic: 32s (best bound 78.9151)
Found heuristic solution: objective 134.0132695
Found heuristic solution: objective 133.2587192
Found heuristic solution: objective 132.3078535
Found heuristic solution: objective 130.9094022
Elapsed time for NoRel heuristic: 38s (best bound 78.9151)
Found heuristic solution: objective 130.7378557
Found heuristic solution: objective 130.6958993
Found heuristic solution: objective 130.2874373
Elapsed time for NoRel heuristic: 44s (best bound 78.9151)
Found heuristic solution: objective 130.1884175
Found heuristic solution: objective 130.0164814
Found heuristic solution: objective 128.4572744
Found heuristic solution: objective 128.3284394
Found heuristic solution: objective 128.3217318
Found heuristic solution: objective 127.6814360
Elapsed time for NoRel heuristic: 50s (best bound 78.9151)
Found heuristic solution: objective 127.6201924
Found heuristic solution: objective 127.4861258
Found heuristic solution: objective 127.4192696
Found heuristic solution: objective 127.2374805
Found heuristic solution: objective 126.5540916
Found heuristic solution: objective 125.7735689
Elapsed time for NoRel heuristic: 57s (best bound 78.9151)
Found heuristic solution: objective 124.2428787
Found heuristic solution: objective 123.7422990
Found heuristic solution: objective 123.7089954
Found heuristic solution: objective 123.5645333
Found heuristic solution: objective 123.4992208
Elapsed time for NoRel heuristic: 65s (best bound 78.9151)
Found heuristic solution: objective 123.1959531
Found heuristic solution: objective 123.0465182
Found heuristic solution: objective 122.8710927
Elapsed time for NoRel heuristic: 71s (best bound 78.9151)
Found heuristic solution: objective 122.2735291
Found heuristic solution: objective 121.8665490
Found heuristic solution: objective 121.6656079
Elapsed time for NoRel heuristic: 77s (best bound 78.9151)
Found heuristic solution: objective 120.7105722
Elapsed time for NoRel heuristic: 83s (best bound 78.9151)
Found heuristic solution: objective 119.5606242
Found heuristic solution: objective 119.4730371
Found heuristic solution: objective 118.4744313
Elapsed time for NoRel heuristic: 92s (best bound 78.9151)
Found heuristic solution: objective 118.2815605
Elapsed time for NoRel heuristic: 98s (best bound 78.9151)
Found heuristic solution: objective 116.8552260
Found heuristic solution: objective 116.6834500
Elapsed time for NoRel heuristic: 106s (best bound 78.9151)
Found heuristic solution: objective 116.2920769
Found heuristic solution: objective 115.9620221
Elapsed time for NoRel heuristic: 114s (best bound 78.9151)
Found heuristic solution: objective 115.7032002
Found heuristic solution: objective 115.6463875
Elapsed time for NoRel heuristic: 122s (best bound 78.9151)
Found heuristic solution: objective 115.4872176
Elapsed time for NoRel heuristic: 128s (best bound 78.9151)
Found heuristic solution: objective 115.2718247
Elapsed time for NoRel heuristic: 134s (best bound 78.9151)
Found heuristic solution: objective 115.1242098
Found heuristic solution: objective 115.0276585
Found heuristic solution: objective 115.0230647
Elapsed time for NoRel heuristic: 140s (best bound 78.9151)
Found heuristic solution: objective 114.5696868
Elapsed time for NoRel heuristic: 146s (best bound 78.9151)
Found heuristic solution: objective 114.3045550
Elapsed time for NoRel heuristic: 151s (best bound 78.9151)
Found heuristic solution: objective 114.2468914
Found heuristic solution: objective 114.0406580
Elapsed time for NoRel heuristic: 160s (best bound 78.9151)
Found heuristic solution: objective 114.0147964
Found heuristic solution: objective 113.9565608
Found heuristic solution: objective 113.6296767
Found heuristic solution: objective 113.5826017
Elapsed time for NoRel heuristic: 171s (best bound 78.9151)
Found heuristic solution: objective 113.5124966
Found heuristic solution: objective 113.4209995
Found heuristic solution: objective 113.4051116
Elapsed time for NoRel heuristic: 188s (best bound 78.9151)
Found heuristic solution: objective 113.3054596
Found heuristic solution: objective 113.1431405
Elapsed time for NoRel heuristic: 199s (best bound 78.9151)
Elapsed time for NoRel heuristic: 205s (best bound 78.9151)
Found heuristic solution: objective 113.1208309
Found heuristic solution: objective 113.0554996
Elapsed time for NoRel heuristic: 220s (best bound 78.9151)
Found heuristic solution: objective 113.0076091
Found heuristic solution: objective 112.4628765
Elapsed time for NoRel heuristic: 241s (best bound 78.9151)
Found heuristic solution: objective 112.4149858
Found heuristic solution: objective 112.2618603
Elapsed time for NoRel heuristic: 261s (best bound 78.9151)
Elapsed time for NoRel heuristic: 278s (best bound 78.9151)
Elapsed time for NoRel heuristic: 291s (best bound 78.9151)
Found heuristic solution: objective 112.1903182
Elapsed time for NoRel heuristic: 371s (best bound 78.9151)
Found heuristic solution: objective 111.4956362
Elapsed time for NoRel heuristic: 390s (best bound 78.9151)
Found heuristic solution: objective 111.1864472
Elapsed time for NoRel heuristic: 403s (best bound 78.9151)
Elapsed time for NoRel heuristic: 415s (best bound 78.9151)
Found heuristic solution: objective 110.9937016
Elapsed time for NoRel heuristic: 439s (best bound 78.9151)
Found heuristic solution: objective 110.9405560
Found heuristic solution: objective 110.7791233
Found heuristic solution: objective 110.7236751
Elapsed time for NoRel heuristic: 452s (best bound 78.9151)
Found heuristic solution: objective 110.7209074
Found heuristic solution: objective 110.6974174
Elapsed time for NoRel heuristic: 477s (best bound 78.9151)
Found heuristic solution: objective 110.0942398
Elapsed time for NoRel heuristic: 506s (best bound 78.9151)
Found heuristic solution: objective 110.0002963
Found heuristic solution: objective 109.7994195
Elapsed time for NoRel heuristic: 532s (best bound 78.9151)
Found heuristic solution: objective 109.5358103
Elapsed time for NoRel heuristic: 554s (best bound 78.9151)
Found heuristic solution: objective 108.8841522
Elapsed time for NoRel heuristic: 581s (best bound 78.9151)
Found heuristic solution: objective 108.0796135
Elapsed time for NoRel heuristic: 599s (best bound 78.9151)
Found heuristic solution: objective 108.0266771
Elapsed time for NoRel heuristic: 624s (best bound 78.9151)
Found heuristic solution: objective 107.6098116
Found heuristic solution: objective 107.0422767
Elapsed time for NoRel heuristic: 647s (best bound 78.9151)
Found heuristic solution: objective 107.0053759
Elapsed time for NoRel heuristic: 672s (best bound 78.9151)
Found heuristic solution: objective 106.9120815
Found heuristic solution: objective 106.3180551
Elapsed time for NoRel heuristic: 697s (best bound 78.9151)
Found heuristic solution: objective 106.3039688
Elapsed time for NoRel heuristic: 732s (best bound 78.9151)
Found heuristic solution: objective 106.0553313
Found heuristic solution: objective 105.8049392
Elapsed time for NoRel heuristic: 770s (best bound 78.9151)
Found heuristic solution: objective 105.6994811
Elapsed time for NoRel heuristic: 797s (best bound 78.9151)
Found heuristic solution: objective 105.6769552
Found heuristic solution: objective 105.3779408
Elapsed time for NoRel heuristic: 836s (best bound 78.9151)
Found heuristic solution: objective 105.2944152
Found heuristic solution: objective 105.1722770
Elapsed time for NoRel heuristic: 867s (best bound 78.9151)
Found heuristic solution: objective 105.0844968
Found heuristic solution: objective 104.6738544
Elapsed time for NoRel heuristic: 913s (best bound 78.9151)
Found heuristic solution: objective 104.5975262
Elapsed time for NoRel heuristic: 953s (best bound 78.9151)
Found heuristic solution: objective 104.3684451
Elapsed time for NoRel heuristic: 990s (best bound 78.9151)
Found heuristic solution: objective 104.2692529
Elapsed time for NoRel heuristic: 1020s (best bound 78.9151)
Found heuristic solution: objective 104.1534425
Found heuristic solution: objective 104.1123174
Elapsed time for NoRel heuristic: 1053s (best bound 78.9151)
Found heuristic solution: objective 103.8488699
Found heuristic solution: objective 103.8463656
Elapsed time for NoRel heuristic: 1082s (best bound 78.9151)
Found heuristic solution: objective 103.6759728
Elapsed time for NoRel heuristic: 1112s (best bound 78.9151)
Elapsed time for NoRel heuristic: 1145s (best bound 78.9151)
Found heuristic solution: objective 103.6565645
Elapsed time for NoRel heuristic: 1177s (best bound 78.9151)
Found heuristic solution: objective 103.6047269
Found heuristic solution: objective 103.6034071
Elapsed time for NoRel heuristic: 1243s (best bound 78.9151)
Found heuristic solution: objective 103.5515695
Elapsed time for NoRel heuristic: 1274s (best bound 78.9151)
Elapsed time for NoRel heuristic: 1304s (best bound 78.9151)
Elapsed time for NoRel heuristic: 1344s (best bound 78.9151)
Elapsed time for NoRel heuristic: 1373s (best bound 78.9151)
Elapsed time for NoRel heuristic: 1495s (best bound 78.9151)
Found heuristic solution: objective 103.5030055
Elapsed time for NoRel heuristic: 1715s (best bound 78.9151)
Found heuristic solution: objective 103.1628033
Elapsed time for NoRel heuristic: 1766s (best bound 78.9151)
Elapsed time for NoRel heuristic: 1815s (best bound 78.9151)
Found heuristic solution: objective 102.7890043
Elapsed time for NoRel heuristic: 1860s (best bound 78.9151)
Elapsed time for NoRel heuristic: 1905s (best bound 78.9151)
Elapsed time for NoRel heuristic: 1976s (best bound 78.9151)
Elapsed time for NoRel heuristic: 2014s (best bound 78.9151)
Elapsed time for NoRel heuristic: 2183s (best bound 78.9151)
Elapsed time for NoRel heuristic: 2451s (best bound 78.9151)

Deterministic concurrent LP optimizer: primal and dual simplex
Showing first log only...

Root relaxation presolved: 60206 rows, 60480 columns, 354900 nonzeros


Root simplex log...

Iteration    Objective       Primal Inf.    Dual Inf.      Time
       0    0.0000000e+00   5.334375e+01   1.410083e+08   2478s
Concurrent spin time: 0.00s

Solved with dual simplex

Root relaxation: objective 7.891511e+01, 2361 iterations, 1.14 seconds (1.30 work units)

    Nodes    |    Current Node    |     Objective Bounds      |     Work
 Expl Unexpl |  Obj  Depth IntInf | Incumbent    BestBd   Gap | It/Node Time

     0     0   78.91511    0  882  102.78900   78.91511  23.2%     - 2479s
     0     0   81.11679    0 1029  102.78900   81.11679  21.1%     - 2493s
     0     0   81.11679    0 1023  102.78900   81.11679  21.1%     - 2506s
     0     0   82.64067    0 1040  102.78900   82.64067  19.6%     - 2530s
     0     0   83.32760    0  862  102.78900   83.32760  18.9%     - 2531s
     0     0   83.32760    0  865  102.78900   83.32760  18.9%     - 2531s
H    0     0                     102.7517067   84.30741  18.0%     - 2562s
     0     0   84.30741    0  926  102.75171   84.30741  18.0%     - 2562s
     0     0   85.05146    0 1083  102.75171   85.05146  17.2%     - 2578s
     0     0   85.25573    0 1017  102.75171   85.25573  17.0%     - 2578s
     0     0   85.25573    0  977  102.75171   85.25573  17.0%     - 2579s
     0     0   85.64788    0  874  102.75171   85.64788  16.6%     - 2612s
     0     0   85.82491    0 1114  102.75171   85.82491  16.5%     - 2613s
     0     0   85.83609    0 1002  102.75171   85.83609  16.5%     - 2613s
     0     0   85.83671    0 1010  102.75171   85.83671  16.5%     - 2613s
     0     0   86.26303    0  987  102.75171   86.26303  16.0%     - 2651s
H    0     0                     102.7517066   86.34128  16.0%     - 2667s
     0     0   86.34128    0 1036  102.75171   86.34128  16.0%     - 2668s
     0     0   86.35521    0 1060  102.75171   86.35521  16.0%     - 2668s
     0     0   86.35521    0 1072  102.75171   86.35521  16.0%     - 2668s
H    0     0                     102.6384566   86.48552  15.7%     - 2712s
     0     0   86.48552    0 1147  102.63846   86.48552  15.7%     - 2712s
     0     0   86.55310    0 1218  102.63846   86.55310  15.7%     - 2712s
     0     0   86.55859    0 1261  102.63846   86.55859  15.7%     - 2713s
     0     0   86.56039    0 1307  102.63846   86.56039  15.7%     - 2713s
     0     0   86.56061    0 1337  102.63846   86.56061  15.7%     - 2713s
     0     0   86.62917    0 1054  102.63846   86.62917  15.6%     - 2761s
     0     0   86.64802    0 1162  102.63846   86.64802  15.6%     - 2777s
     0     0   86.64987    0 1215  102.63846   86.64987  15.6%     - 2778s
     0     0   86.65022    0 1244  102.63846   86.65022  15.6%     - 2778s
     0     0   86.77750    0 1131  102.63846   86.77750  15.5%     - 2832s
     0     0   86.80644    0 1330  102.63846   86.80644  15.4%     - 2832s
     0     0   86.83604    0 1546  102.63846   86.83604  15.4%     - 2832s
     0     0   86.83604    0 1570  102.63846   86.83604  15.4%     - 2833s
     0     0   87.04353    0  957  102.63846   87.04353  15.2%     - 2892s
     0     0   87.06958    0 1192  102.63846   87.06958  15.2%     - 2907s
     0     0   87.06997    0 1142  102.63846   87.06997  15.2%     - 2907s
     0     0   87.18976    0 1180  102.63846   87.18976  15.1%     - 2960s
     0     0   87.19090    0 1382  102.63846   87.19090  15.1%     - 2961s
     0     0   87.23941    0 1229  102.63846   87.23941  15.0%     - 3013s
     0     0   87.24527    0 1366  102.63846   87.24527  15.0%     - 3017s
     0     0   87.24635    0 1408  102.63846   87.24635  15.0%     - 3018s
H    0     0                     102.6384564   87.38978  14.9%     - 3076s
     0     0   87.38978    0 1149  102.63846   87.38978  14.9%     - 3076s
     0     0   87.39544    0 1389  102.63846   87.39544  14.9%     - 3077s
     0     0   87.39555    0 1414  102.63846   87.39555  14.9%     - 3077s
     0     0   87.66517    0 1259  102.63846   87.66517  14.6%     - 3139s
     0     0   87.69450    0 1320  102.63846   87.69450  14.6%     - 3143s
     0     0   87.71826    0 1471  102.63846   87.71826  14.5%     - 3143s
     0     0   87.71854    0 1469  102.63846   87.71854  14.5%     - 3143s
     0     0   87.78866    0 1337  102.63846   87.78866  14.5%     - 3205s
     0     0   87.80528    0 1612  102.63846   87.80528  14.5%     - 3205s
     0     0   87.80602    0 1632  102.63846   87.80602  14.5%     - 3206s
     0     0   87.98767    0 1484  102.63846   87.98767  14.3%     - 3263s
     0     0   87.99988    0 1538  102.63846   87.99988  14.3%     - 3265s
     0     0   88.00288    0 1535  102.63846   88.00288  14.3%     - 3266s
     0     0   88.00323    0 1572  102.63846   88.00323  14.3%     - 3266s
     0     0   88.04055    0 1289  102.63846   88.04055  14.2%     - 3328s
     0     0   88.08770    0 1478  102.63846   88.08770  14.2%     - 3328s
     0     0   88.09084    0 1472  102.63846   88.09084  14.2%     - 3329s
     0     0   88.09136    0 1462  102.63846   88.09136  14.2%     - 3329s
     0     0   88.14054    0 1344  102.63846   88.14054  14.1%     - 3395s
     0     0   88.14479    0 1495  102.63846   88.14479  14.1%     - 3396s
     0     0   88.14508    0 1503  102.63846   88.14508  14.1%     - 3396s
     0     0   88.16185    0 1412  102.63846   88.16185  14.1%     - 3461s
     0     0   88.16416    0 1565  102.63846   88.16416  14.1%     - 3462s
     0     0   88.16889    0 1468  102.63846   88.16889  14.1%     - 3462s
     0     0   88.16889    0 1473  102.63846   88.16889  14.1%     - 3462s
H    0     0                     102.6384561   88.16889  14.1%     - 3495s
     0     0   88.17722    0 1644  102.63846   88.17722  14.1%     - 3533s
     0     0   88.18610    0 1639  102.63846   88.18610  14.1%     - 3533s
     0     0   88.18685    0 1614  102.63846   88.18685  14.1%     - 3534s
     0     0   88.21323    0 1311  102.63846   88.21323  14.1%     - 3601s
     0     0   88.21413    0 1572  102.63846   88.21413  14.1%     - 3602s
     0     0   88.23022    0 1581  102.63846   88.23022  14.0%     - 3669s
     0     0   88.23412    0 1527  102.63846   88.23412  14.0%     - 3672s
     0     0   88.23458    0 1564  102.63846   88.23458  14.0%     - 3672s
     0     0   88.29639    0 1368  102.63846   88.29639  14.0%     - 3741s
     0     0   88.29697    0 1615  102.63846   88.29697  14.0%     - 3741s
     0     0   88.32342    0 1492  102.63846   88.32342  13.9%     - 3808s
     0     0   88.32937    0 1616  102.63846   88.32937  13.9%     - 3808s
     0     0   88.33035    0 1673  102.63846   88.33035  13.9%     - 3809s
     0     0   88.33581    0 1375  102.63846   88.33581  13.9%     - 3886s
     0     0   88.33712    0 1490  102.63846   88.33712  13.9%     - 3887s
     0     0   88.33786    0 1508  102.63846   88.33786  13.9%     - 3954s
     0     0   88.33786    0 1507  102.63846   88.33786  13.9%     - 4105s
     0     2   88.33786    0 1507  102.63846   88.33786  13.9%     - 4112s
     1     4   88.34700    1 1467  102.63846   88.34700  13.9%  92.0 4134s
     3     8   88.35753    2 1611  102.63846   88.35753  13.9%   235 4166s
     7    12   88.37185    3 1635  102.63846   88.37185  13.9%   340 4183s
    11    16   88.40327    4 1554  102.63846   88.37191  13.9%   361 4197s
    15    20   88.43368    5 1526  102.63846   88.40166  13.9%   390 4206s
    19    24   88.46286    6 1563  102.63846   88.41522  13.9%   374 4218s
    23    28   88.48290    7 1377  102.63846   88.42732  13.8%   406 4225s
    27    33   88.47893    7 1588  102.63846   88.44340  13.8%   401 4235s
    32    37   88.50209    4 1566  102.63846   88.45362  13.8%   412 4243s
    36    42   88.53461    5 1730  102.63846   88.46271  13.8%   449 4254s
    41    49   88.54861    7 1584  102.63846   88.47039  13.8%   434 4262s
    48    53   88.51977    8 1505  102.63846   88.47336  13.8%   424 4270s
    52    60   88.50259    8 1610  102.63846   88.48056  13.8%   429 4278s
    59    64   88.68986    8 1398  102.63846   88.48801  13.8%   439 4317s
    63    70   88.54616    8 1555  102.63846   88.50259  13.8%   442 4326s
    69    82   88.55674    6 1392  102.63846   88.50722  13.8%   437 4334s
    81    94   88.57974    5 1532  102.63846   88.51159  13.8%   427 4343s
    93    99   88.69965    9 1542  102.63846   88.51422  13.8%   415 4356s
    98   106   88.63073    9 1386  102.63846   88.53153  13.7%   418 4364s
   105   119   88.64131    6 1707  102.63846   88.53482  13.7%   421 4373s
   118   128   88.59730   10 1478  102.63846   88.53683  13.7%   412 4381s
   127   133   88.61726    9 1539  102.63846   88.54116  13.7%   410 4395s
H  131   133                     102.6347075   88.54797  13.7%   406 4395s
   132   144   88.60052    8 1567  102.63471   88.55050  13.7%   409 4404s
   143   156   88.80706   10 1500  102.63471   88.55561  13.7%   413 4413s
   156   164   88.75431    9 1564  102.63471   88.55982  13.7%   409 4425s
   164   178   88.81128   10 1297  102.63471   88.56196  13.7%   408 4436s
   178   190   88.82101    7 1334  102.63471   88.56509  13.7%   408 4447s
   190   196   88.77973    9 1389  102.63471   88.57288  13.7%   411 4459s
   193   196   88.60531   10 1605  102.63471   88.57622  13.7%   416 4460s
   196   206   88.83686    7 1420  102.63471   88.57928  13.7%   424 4477s
   206   240   88.73610    6 1382  102.63471   88.58169  13.7%   435 4494s
   240   254   88.70848    9 1207  102.63471   88.58426  13.7%   417 4509s
   254   286   89.06769   11 1408  102.63471   88.58560  13.7%   413 4521s
   286   318   88.60880    9 1233  102.63471   88.59317  13.7%   393 4539s
   318   354   88.69732    5 1461  102.63471   88.59499  13.7%   384 4554s
   354   358   88.70170    5 1544  102.63471   88.59677  13.7%   373 4603s
   358   389   88.85861   10 1525  102.63471   88.60045  13.7%   381 4618s
   389   425   88.62510   10 1660  102.63471   88.60284  13.7%   379 4636s
   425   449   88.66203    6 1387  102.63471   88.60513  13.7%   372 4651s
   449   468   88.66495    9 1572  102.63471   88.60877  13.7%   369 4669s
   468   495   88.71886   10 1496  102.63471   88.61027  13.7%   365 4684s
   495   508   88.66480   10 1656  102.63471   88.61726  13.7%   364 4704s
   508   557   88.69588    9 1425  102.63471   88.61781  13.7%   364 4721s
   557   586   88.74683    7 1459  102.63471   88.62410  13.7%   353 4740s
   586   637   88.82511   11 1571  102.63471   88.62661  13.6%   352 4765s
   637   701   88.65098   11 1256  102.63471   88.62944  13.6%   347 4789s
   701   772   88.98049    9 1516  102.63471   88.63190  13.6%   341 4815s
   772   838   88.71276    9 1379  102.63471   88.63431  13.6%   334 4842s
   838   926   88.79350    6 1564  102.63471   88.63542  13.6%   332 4868s
   926   993   88.79841   12 1546  102.63471   88.63721  13.6%   322 4893s
   993  1059   88.73318   14 1306  102.63471   88.63949  13.6%   320 4916s
  1060  1060   89.18318   16 1507  102.63471   88.63979  13.6%   314 4947s
  1062  1061   89.45176   21 1103  102.63471   88.63979  13.6%   313 5006s
H 1062  1007                     102.6347074   88.63979  13.6%   313 5049s
  1063  1008   88.88464   20 1071  102.63471   88.63979  13.6%   313 5124s
  1064  1009   88.66164   10 1078  102.63471   88.63979  13.6%   312 5150s
  1065  1009   89.06300   15 1465  102.63471   88.63979  13.6%   312 5158s
  1066  1010   89.33924   33 1515  102.63471   88.63979  13.6%   312 5169s
  1067  1011   89.69379    5 1519  102.63471   88.63979  13.6%   312 5173s
  1068  1011   89.15432   26 1538  102.63471   88.63979  13.6%   311 5176s
  1070  1013   89.26220   24 1699  102.63471   88.63979  13.6%   311 5243s
  1071  1013   89.06379   19 1393  102.63471   88.63979  13.6%   310 5348s
  1073  1015   89.07160   20 1586  102.63471   88.63979  13.6%   310 5422s
  1074  1015   88.99942   20 1571  102.63471   88.63979  13.6%   310 5524s
  1075  1016   88.80085    6 1620  102.63471   88.63979  13.6%   309 5525s
  1077  1017   89.34547   34 1693  102.63471   88.63979  13.6%   309 5611s
H 1077   966                     102.6347072   88.63979  13.6%   309 5703s
  1079   968   88.98965   27 1661  102.63471   88.63979  13.6%   308 5792s
  1080   968   88.92024   20 1631  102.63471   88.63979  13.6%   308 5906s
  1081   969   88.82926    9 1754  102.63471   88.63979  13.6%   308 5984s
  1082   970   88.67660    9 1697  102.63471   88.63979  13.6%   307 6073s
  1084   971   88.85483   11 1752  102.63471   88.63979  13.6%   307 6170s
  1085   972   89.44017   20 1684  102.63471   88.63979  13.6%   306 6275s
  1088   974   88.85316   20 1806  102.63471   88.63979  13.6%   306 6382s
  1089   974   88.75018   11 1657  102.63471   88.63979  13.6%   305 6484s
  1090   975   88.81159   11 1724  102.63471   88.63979  13.6%   305 6485s
  1091   976   88.99645   21 1758  102.63471   88.63979  13.6%   305 6593s
  1092   976   89.06801   20 1626  102.63471   88.63979  13.6%   304 6792s
  1093   977   88.84716   11 1706  102.63471   88.63979  13.6%   304 6826s
  1094   978   88.90525   10 1737  102.63471   88.63979  13.6%   304 6923s
  1095   978   88.82865   14 1585  102.63471   88.63979  13.6%   304 7163s

Cutting planes:
  User: 3
  Gomory: 85
  Lift-and-project: 52
  Implied bound: 67
  MIR: 53
  StrongCG: 6
  Flow cover: 462
  GUB cover: 3
  Zero half: 229
  RLT: 6
  Relax-and-lift: 7

Explored 1095 nodes (375831 simplex iterations) in 7200.85 seconds (7356.22 work units)
Thread count was 8 (of 8 available processors)

Solution count 10: 102.635 102.635 102.635 ... 103.163

Time limit reached
Best objective 1.026347072156e+02, best bound 8.863979333699e+01, gap 13.6357%